NAME : portcgen-19-7
COMMENT : portcgen N=19, seed=7
TYPE : TSP
DIMENSION : 19
EDGE_WEIGHT_TYPE : EUC_2D
NODE_COORD_SECTION
1 146497 -207194
2 -62237 371426
3 179427 -69051
4 -275486 -290528
5 -388245 98908
6 -19916 -194252
7 -444346 -244264
8 213068 213820
9 -11539 -258494
10 889 -41717
11 147317 -27132
12 26055 -358335
13 -556092 184547
14 -339082 229247
15 431020 317331
16 -105913 140928
17 -79281 -277123
18 -36697 -247353
19 -457795 -115187
